nN = 6;
nR = 15;
nH = 1;

a = [[23, 15, 7, 7, 17, 17, 13, 17, 10, 10, 25, 18, 20, 16, 12], [19, 10, 8, 23, 5, 6, 10, 13, 13, 23, 19, 9, 20, 11, 16], [24, 9, 9, 23, 17, 10, 25, 6, 14, 25, 10, 21, 5, 10, 14], [20, 23, 21, 9, 11, 11, 7, 9, 8, 6, 5, 11, 9, 8, 6], [18, 10, 23, 25, 12, 21, 5, 10, 14, 6, 19, 23, 13, 6, 20], [5, 19, 23, 24, 25, 12, 18, 9, 7, 16, 20, 23, 22, 20, 13]];
c = [[[0, 0, 0, 0, 0, 0, 0, 0, 0, 0, 0, 0, 0, 0, 0], [45, 40, 50, 30, 41, 38, 42, 45, 48, 36, 40, 40, 49, 50, 33], [40, 48, 42, 37, 43, 49, 39, 46, 45, 41, 39, 31, 48, 30, 31], [49, 39, 50, 40, 45, 34, 40, 46, 37, 46, 30, 48, 33, 43, 30], [43, 47, 50, 37, 44, 50, 33, 47, 35, 31, 32, 30, 30, 37, 41], [49, 34, 31, 36, 49, 32, 49, 38, 35, 33, 36, 34, 31, 50, 44]], [[0, 0, 0, 0, 0, 0, 0, 0, 0, 0, 0, 0, 0, 0, 0], [0, 0, 0, 0, 0, 0, 0, 0, 0, 0, 0, 0, 0, 0, 0], [31, 44, 34, 48, 47, 31, 30, 43, 37, 45, 47, 34, 31, 49, 35], [38, 42, 38, 43, 44, 31, 37, 49, 48, 40, 38, 37, 34, 46, 32], [45, 30, 30, 47, 50, 46, 45, 38, 39, 30, 44, 46, 30, 48, 35], [47, 38, 30, 36, 41, 44, 34, 42, 31, 39, 49, 32, 36, 46, 31]], [[0, 0, 0, 0, 0, 0, 0, 0, 0, 0, 0, 0, 0, 0, 0], [0, 0, 0, 0, 0, 0, 0, 0, 0, 0, 0, 0, 0, 0, 0], [0, 0, 0, 0, 0, 0, 0, 0, 0, 0, 0, 0, 0, 0, 0], [40, 45, 37, 36, 32, 46, 48, 38, 42, 50, 39, 50, 40, 40, 44], [48, 32, 38, 33, 48, 48, 46, 31, 33, 33, 45, 41, 41, 45, 38], [43, 41, 41, 42, 41, 41, 49, 49, 42, 34, 45, 46, 47, 37, 48]], [[0, 0, 0, 0, 0, 0, 0, 0, 0, 0, 0, 0, 0, 0, 0], [0, 0, 0, 0, 0, 0, 0, 0, 0, 0, 0, 0, 0, 0, 0], [0, 0, 0, 0, 0, 0, 0, 0, 0, 0, 0, 0, 0, 0, 0], [0, 0, 0, 0, 0, 0, 0, 0, 0, 0, 0, 0, 0, 0, 0], [49, 37, 32, 45, 31, 38, 35, 40, 46, 45, 38, 32, 45, 49, 34], [36, 36, 46, 48, 39, 33, 45, 37, 41, 40, 32, 39, 41, 46, 43]], [[0, 0, 0, 0, 0, 0, 0, 0, 0, 0, 0, 0, 0, 0, 0], [0, 0, 0, 0, 0, 0, 0, 0, 0, 0, 0, 0, 0, 0, 0], [0, 0, 0, 0, 0, 0, 0, 0, 0, 0, 0, 0, 0, 0, 0], [0, 0, 0, 0, 0, 0, 0, 0, 0, 0, 0, 0, 0, 0, 0], [0, 0, 0, 0, 0, 0, 0, 0, 0, 0, 0, 0, 0, 0, 0], [44, 31, 47, 46, 50, 37, 49, 50, 30, 32, 44, 39, 31, 47, 32]], [[0, 0, 0, 0, 0, 0, 0, 0, 0, 0, 0, 0, 0, 0, 0], [0, 0, 0, 0, 0, 0, 0, 0, 0, 0, 0, 0, 0, 0, 0], [0, 0, 0, 0, 0, 0, 0, 0, 0, 0, 0, 0, 0, 0, 0], [0, 0, 0, 0, 0, 0, 0, 0, 0, 0, 0, 0, 0, 0, 0], [0, 0, 0, 0, 0, 0, 0, 0, 0, 0, 0, 0, 0, 0, 0], [0, 0, 0, 0, 0, 0, 0, 0, 0, 0, 0, 0, 0, 0, 0]]];
Q = [[33], [29], [32], [29], [28], [32]];

q = [[[9], [24], [19], [22], [18], [16], [11], [10], [18], [22], [6], [21], [7], [21], [21]], [[16], [5], [16], [25], [14], [14], [22], [23], [9], [5], [24], [6], [9], [18], [6]], [[15], [22], [20], [5], [18], [24], [19], [8], [5], [22], [9], [11], [14], [24], [17]], [[7], [23], [5], [17], [11], [10], [17], [13], [11], [22], [13], [9], [22], [22], [9]], [[5], [8], [20], [12], [23], [18], [19], [9], [9], [9], [24], [10], [7], [13], [18]], [[23], [8], [13], [25], [13], [25], [14], [21], [12], [8], [15], [14], [23], [8], [18]]];
p = [0.78, 0.55, 0.42, 0.29, 0.45, 0.6, 0.53, 0.79, 0.03, 0.72, 0.78, 0.74, 0.07, 0.81, 0.82];
